1
1000
249
499 1
495 1
494 1
493 1
492 1
491 1
489 1
489 1
489 1
488 1
487 1
486 1
484 1
482 1
482 1
477 1
476 1
474 1
473 1
472 1
466 1
463 1
461 1
459 1
458 1
458 1
454 1
451 1
451 1
448 1
444 1
444 1
443 1
442 1
442 1
441 1
438 1
435 1
431 1
430 1
427 1
425 1
424 1
424 1
420 1
420 1
419 1
418 1
414 1
414 1
412 1
407 1
405 1
405 1
400 1
398 1
397 1
396 1
396 1
395 1
393 1
393 1
392 1
391 1
391 1
387 1
385 1
385 1
381 1
380 1
378 1
374 1
373 1
373 1
371 1
369 1
368 1
367 1
367 1
366 1
364 1
363 1
363 1
362 1
362 1
361 1
359 1
357 1
356 1
355 1
354 1
348 1
347 1
347 1
341 1
340 1
339 1
339 1
337 1
336 1
335 1
334 1
333 1
330 1
329 1
327 1
325 1
324 1
324 1
323 1
321 1
321 1
318 1
317 1
313 1
313 1
312 1
311 1
311 1
309 1
309 1
308 1
305 1
305 1
304 1
304 1
303 1
303 1
303 1
302 1
299 1
298 1
298 1
296 1
295 1
295 1
295 1
294 1
292 1
292 1
290 1
289 1
289 1
289 1
288 1
286 1
286 1
285 1
285 1
285 1
284 1
283 1
283 1
282 1
282 1
282 1
282 1
282 1
281 1
281 1
280 1
279 1
278 1
278 1
278 1
277 1
277 1
276 1
276 1
276 1
276 1
275 1
275 1
273 1
273 1
272 1
272 1
272 1
272 1
272 1
272 1
270 1
270 1
270 1
270 1
270 1
270 1
270 1
270 1
269 1
269 1
267 1
266 1
265 1
265 1
265 1
265 1
264 1
264 1
264 1
264 1
263 1
263 1
263 1
261 1
260 1
260 1
260 1
259 1
259 1
259 1
258 1
258 1
258 1
257 1
257 1
257 1
257 1
257 1
256 1
256 1
256 1
256 1
255 1
255 1
255 1
255 1
254 1
254 1
254 1
254 1
253 1
253 1
253 1
253 1
252 1
252 1
251 1
251 1
251 1
251 1
251 1
251 1
251 1
250 1
250 1
250 1
250 1
250 1
